nApps = 206
nRes = 9
nActs = 434
nNetworks = 6

assignmentToResources = [3,2,1,1,1,3,1,1,2,3,2,2,3,3,2,1,3,2,2,2,2,3,1,3,2,3,1,1,3,1,3,1,2,2,3,3,1,3,3,1,2,1,3,1,2,3,1,1,3,3,3,3,3,2,2,3,2,3,3,3,2,3,3,2,3,1,2,3,1,3,2,2,3,2,3,2,3,3,3,1,3,3,3,3,2,1,3,2,3,2,1,2,3,2,1,2,2,1,2,2,5,5,4,4,4,4,4,4,4,4,4,6,4,4,4,4,4,6,6,6,5,5,5,5,6,6,6,5,5,5,5,4,4,4,6,6,5,5,5,5,5,6,6,4,6,5,6,4,4,4,6,4,4,4,6,6,6,4,4,5,5,5,4,6,6,5,4,4,4,4,4,5,6,4,6,6,6,6,6,6,6,6,6,6,6,6,6,6,5,5,5,5,5,6,6,5,5,5,5,6,5,6,6,5,6,6,4,6,6,4,6,5,5,5,5,6,6,6,6,6,4,4,6,6,5,5,5,5,5,4,5,6,6,5,4,4,5,5,5,4,8,5,9,6,7,5,7,6,8,6,8,4,9,5,7,5,7,4,9,6,7,4,8,4,9,4,8,6,7,5,9,4,8,5,7,6,8,4,9,5,7,6,7,5,9,6,8,6,8,5,7,4,9,4,8,7,7,9,8,8,9,8,9,9,8,8,8,9,9,9,9,9,7,7,8,9,9,9,7,7,8,8,7,9,7,9,8,9,9,8,8,9,9,7,7,7,7,7,8,8,7,7,9,9,9,7,9,8,9,8,8,7,9,9,9,9,7,9,8,7,9,9,8,8,8,8,9,8,9,8,8,7,8,8,8,8,8,7,7,7,7,8,7,9,9,9,9,9,8,8,9,9,9,9,8,9,8,7,7,7,8,8,8,7,8,7,7,9,9,9,7,7,8,8,8,8,9,8,7,9,7,7,7,9,9,9,7,8,9,8,9,9,9,7];

processingTimes = [136,72,88,56,136,96,48,112,104,96,64,144,120,152,80,72,112,120,72,48,96,160,168,104,128,160,152,136,80,104,104,64,136,168,128,120,104,128,88,128,120,112,88,120,112,136,112,160,88,104,160,128,72,112,160,128,96,128,72,104,128,104,104,56,168,72,136,112,80,112,136,48,104,136,136,104,104,136,136,80,120,128,128,88,128,136,56,168,128,88,128,104,64,112,120,160,136,136,120,80,4,4,4,4,4,4,4,4,3,5,5,4,3,5,5,4,3,3,1000,4,4,4,4,4,1000,1000,3,1000,3,8,3,3,5,5,1000,5,4,3,3,3,3,5,1000,3,3,1000,1000,4,3,8,4,4,4,4,3,3,4,500,4,4,4,4,500,4,3,500,3,3,4,4,4,4,3,4,4,3,3,3,1000,1000,1000,4,1000,1000,3,1000,3,1000,500,500,4,500,4,3,3,4,3,3,500,1000,500,4,3,4,3,1000,500,4,4,4,4,3,4,4,6,5,5,3,8,3,500,3,4,3,500,4,8,3,3,3,4,3,3,4,3,3,5,5,3,4,4,4,4,4,4,4,4,4,4,3,3,4,4,3,3,5,5,4,4,4,4,8,8,13,13,500,500,500,500,500,500,500,500,500,500,4,4,4,4,4,4,5,5,4,4,4,4,4,4,4,4,6,6,3,3,4,4,4,4,4,4,4,4,3,5,5,4,3,5,5,4,3,3,1000,4,4,4,4,4,1000,1000,3,1000,3,8,3,3,5,5,1000,5,4,3,3,3,3,5,1000,3,3,1000,1000,4,3,8,4,4,4,4,3,3,4,500,4,4,4,4,500,4,3,500,3,3,4,4,4,4,3,4,4,3,3,3,1000,1000,1000,4,1000,1000,3,1000,3,1000,500,500,4,500,4,3,3,4,3,3,500,1000,500,4,3,4,3,1000,500,4,4,4,4,3,4,4,6,5,5,3,8,3,500,3,4,3,500,4,8,3,3,3,4,3,3,4,3,3,5,5,3];

periods = [10000,2000,20000,100000,10000,10000,100000,5000,10000,10000,100000,20000,50000,10000,10000,10000,100000,100000,20000,100000,2000,10000,10000,20000,100000,10000,20000,100000,100000,10000,50000,10000,20000,100000,10000,20000,10000,100000,100000,100000,100000,20000,10000,20000,5000,20000,20000,1000,100000,20000,100000,20000,20000,10000,50000,10000,20000,100000,20000,20000,10000,20000,10000,5000,100000,20000,20000,20000,100000,10000,100000,20000,100000,20000,10000,2000,20000,100000,10000,10000,20000,20000,10000,10000,10000,100000,10000,10000,20000,100000,10000,100000,2000,100000,20000,100000,100000,10000,20000,10000,2000,2000,20000,20000,100000,100000,100000,10000,10000,10000,10000,10000,100000,100000,100000,100000,5000,10000,10000,10000,100000,20000,20000,20000,50000,10000,10000,10000,10000,10000,10000,10000,10000,10000,100000,100000,100000,20000,20000,100000,2000,10000,10000,10000,20000,100000,10000,20000,20000,100000,100000,10000,10000,10000,50000,50000,50000,10000,10000,20000,20000,100000,10000,100000,100000,100000,20000,20000,20000,20000,20000,5000,20000,1000,100000,100000,100000,100000,100000,20000,20000,20000,20000,100000,100000,20000,20000,20000,10000,10000,10000,50000,50000,10000,10000,20000,20000,20000,20000,20000,10000,20000,20000,5000,100000,100000,20000,20000,20000,100000,100000,20000,2000,2000,2000,20000,20000,100000,100000,10000,10000,10000,20000,10000,10000,10000,10000,10000,10000,10000,100000,2000,2000,100000,10000,10000,20000,20000,10000,100000,100000,100000,100000,100000,100000,100000,100000,100000,100000,100000,100000,100000,100000,100000,100000,100000,100000,100000,100000,100000,100000,100000,100000,100000,100000,10000,10000,10000,10000,10000,10000,10000,10000,10000,10000,20000,20000,20000,20000,20000,20000,20000,20000,100000,100000,100000,100000,20000,20000,20000,20000,20000,20000,10000,10000,2000,2000,20000,20000,100000,100000,100000,10000,10000,10000,10000,10000,100000,100000,100000,100000,5000,10000,10000,10000,100000,20000,20000,20000,50000,10000,10000,10000,10000,10000,10000,10000,10000,10000,100000,100000,100000,20000,20000,100000,2000,10000,10000,10000,20000,100000,10000,20000,20000,100000,100000,10000,10000,10000,50000,50000,50000,10000,10000,20000,20000,100000,10000,100000,100000,100000,20000,20000,20000,20000,20000,5000,20000,1000,100000,100000,100000,100000,100000,20000,20000,20000,20000,100000,100000,20000,20000,20000,10000,10000,10000,50000,50000,10000,10000,20000,20000,20000,20000,20000,10000,20000,20000,5000,100000,100000,20000,20000,20000,100000,100000,20000,2000,2000,2000,20000,20000,100000,100000,10000,10000,10000,20000,10000,10000,10000,10000,10000,10000,10000,100000,2000,2000,100000,10000,10000,20000,20000,10000];

assignmentToClusters = [1,2,3,4,5,6,7,8,9,10,4,11,12,13,14,15,4,4,16,4,17,18,19,20,21,22,23,4,4,24,25,9,26,4,9,27,28,29,4,4,4,20,30,31,32,33,26,34,35,26,36,37,38,39,40,41,42,21,43,43,44,45,46,47,4,26,11,26,4,48,49,50,4,51,52,53,54,55,9,9,56,11,57,58,9,4,59,60,61,49,39,21,62,63,11,64,65,9,66,67,68,69,70,71,72,73,74,75,76,77,78,79,80,81,82,83,84,85,86,87,88,89,90,91,92,93,94,95,96,97,98,99,100,101,102,103,104,105,106,107,108,109,110,111,112,113,114,115,116,117,118,119,120,121,122,123,124,125,126,127,128,129,130,131,132,133,134,135,136,137,138,139,140,141,142,143,144,145,146,147,148,149,150,151,152,153,154,155,156,157,158,159,160,161,162,163,164,165,166,167,168,169,170,171,172,173,174,175,176,177,178,179,180,181,182,183,184,185,186,187,188,189,190,191,192,193,194,195,196,197,198,199,200,201,202,203,204,205,206,4,4,4,4,4,4,4,4,4,4,4,4,4,4,4,4,4,4,4,4,4,4,4,4,4,4,9,9,9,9,9,9,9,9,9,9,11,11,11,11,11,11,20,20,21,21,21,21,26,26,26,26,26,26,39,39,68,69,70,71,72,73,74,75,76,77,78,79,80,81,82,83,84,85,86,87,88,89,90,91,92,93,94,95,96,97,98,99,100,101,102,103,104,105,106,107,108,109,110,111,112,113,114,115,116,117,118,119,120,121,122,123,124,125,126,127,128,129,130,131,132,133,134,135,136,137,138,139,140,141,142,143,144,145,146,147,148,149,150,151,152,153,154,155,156,157,158,159,160,161,162,163,164,165,166,167,168,169,170,171,172,173,174,175,176,177,178,179,180,181,182,183,184,185,186,187,188,189,190,191,192,193,194,195,196,197,198,199,200,201,202,203,204,205,206];

precedenceAdjList = [[],[],[],[],[],[],[],[],[266],[],[240],[276],[],[],[],[],[258],[],[],[17],[],[],[],[],[],[],[],[260],[242],[],[],[],[288],[248,250],[78],[],[],[],[],[244,246],[262],[282],[],[],[],[],[65],[],[],[292],[],[],[],[294],[],[],[],[284],[],[58],[],[],[],[],[252],[290],[],[],[256],[],[],[],[264],[],[],[],[],[],[270],[274],[],[278],[],[],[272],[254],[],[],[],[70],[],[286],[],[],[280],[],[],[268],[],[],[],[],[],[],[],[],[],[],[],[],[],[],[],[],[],[],[],[],[],[],[],[],[],[],[],[],[],[],[],[],[],[],[],[],[],[],[],[],[],[],[],[],[],[],[],[],[],[],[],[],[],[],[],[],[],[],[],[],[],[],[],[],[],[],[],[],[],[],[],[],[],[],[],[],[],[],[],[],[],[],[],[],[],[],[],[],[],[],[],[],[],[],[],[],[],[],[],[],[],[],[],[],[],[],[],[],[],[],[],[],[],[],[],[],[],[],[],[],[],[],[],[],[],[],[],[],[],[],[],[],[],[],[],[],[],[],[],[],[],[3],[239],[10],[241],[28],[243],[33],[245],[38],[247],[64],[249],[85],[251],[19],[253],[19],[255],[85],[257],[16],[259],[27],[261],[39],[263],[97],[265],[78],[267],[84],[269],[31],[271],[8],[273],[81],[275],[94],[277],[66],[279],[23],[281],[24],[283],[57],[285],[67],[287],[32],[289],[46],[291],[90],[293],[100],[101],[102],[103],[104],[105],[106],[107],[108],[109],[110],[111],[112],[113],[114],[115],[116],[117],[118],[119],[120],[121],[122],[123],[124],[125],[126],[127],[128],[129],[130],[131],[132],[133],[134],[135],[136],[137],[138],[139],[140],[141],[142],[143],[144],[145],[146],[147],[148],[149],[150],[151],[152],[153],[154],[155],[156],[157],[158],[159],[160],[161],[162],[163],[164],[165],[166],[167],[168],[169],[170],[171],[172],[173],[174],[175],[176],[177],[178],[179],[180],[181],[182],[183],[184],[185],[186],[187],[188],[189],[190],[191],[192],[193],[194],[195],[196],[197],[198],[199],[200],[201],[202],[203],[204],[205],[206],[207],[208],[209],[210],[211],[212],[213],[214],[215],[216],[217],[218],[219],[220],[221],[222],[223],[224],[225],[226],[227],[228],[229],[230],[231],[232],[233],[234],[235],[236],[237],[238]];